# Objective value = 2.9717837383401826e+02
x[0] 0
x[1] 0
x[2] 1
x[3] 0
x[4] 1
x[5] 0
x[6] 0
x[7] 1
x[8] 1
x[9] 0
x[10] 0
x[11] 0
x[12] 1
x[13] 1
x[14] 1
x[15] 1
x[16] 1
x[17] 1
x[18] 0
x[19] 1
x[20] 1
x[21] 0
x[22] 0
x[23] 0
x[24] 0
x[25] 1
x[26] 1
x[27] 1
x[28] 1
x[29] 1
x[30] 1
x[31] 1
x[32] 0
x[33] 0
x[34] 0
x[35] 0
x[36] 1
x[37] 0
x[38] 0
x[39] 0
x[40] 0
x[41] 0
x[42] 0
x[43] 1
x[44] 1
x[45] 1
x[46] 1
x[47] 0
x[48] 0
x[49] 1
x[50] 0
x[51] 1
x[52] 1
x[53] 1
x[54] 0
x[55] 1
x[56] 0
x[57] 0
x[58] 1
x[59] 1
x[60] 0
x[61] 1
x[62] 1
x[63] 1
x[64] 1
x[65] 1
x[66] 1
x[67] 0
x[68] 0
x[69] 0
x[70] 0
x[71] 0
x[72] 1
x[73] 1
x[74] 0
x[75] 0
x[76] 0
x[77] 1
x[78] 0
x[79] 0
x[80] 1
x[81] 1
x[82] 0
x[83] 0
x[84] 0
x[85] 1
x[86] 1
x[87] 1
x[88] 0
x[89] 0
x[90] 1
x[91] 0
x[92] 0
x[93] 0
x[94] 0
x[95] 1
x[96] 1
x[97] 0
x[98] 1
x[99] 0
x[100] 0
x[101] 1
x[102] 1
x[103] 0
x[104] 0
x[105] 0
x[106] 1
x[107] 0
x[108] 0
x[109] 0
x[110] 0
x[111] 0
x[112] 1
x[113] 0
x[114] 1
x[115] 0
x[116] 1
x[117] 0
x[118] 0
x[119] 0
x[120] 0
x[121] 0
x[122] 0
x[123] 0
x[124] 0
x[125] 0
x[126] 1
x[127] 0
x[128] 0
x[129] 0
x[130] 1
x[131] 1
x[132] 1
x[133] 1
x[134] 1
x[135] 0
x[136] 1
x[137] 0
x[138] 1
x[139] 1
x[140] 0
x[141] 0
x[142] 0
x[143] 0
x[144] 0
x[145] 1
x[146] 0
x[147] 0
x[148] 1
x[149] 0
x[150] 0
x[151] 0
x[152] 0
x[153] 1
x[154] 1
x[155] 0
x[156] 1
x[157] 1
x[158] 0
x[159] 0
x[160] 1
x[161] 1
x[162] 0
x[163] 1
x[164] 1
x[165] 0
x[166] 0
x[167] 0
x[168] 0
x[169] 1
x[170] 0
x[171] 0
x[172] 0
x[173] 0
x[174] 1
x[175] 1
x[176] 1
x[177] 0
x[178] 0
x[179] 0
x[180] 0
x[181] 0
x[182] 1
x[183] 1
x[184] 0
x[185] 0
x[186] 0
x[187] 1
x[188] 0
x[189] 1
x[190] 1
x[191] 0
x[192] 0
x[193] 0
x[194] 1
x[195] 1
x[196] 0
x[197] 0
x[198] 0
x[199] 1
x[200] 0
x[201] 1
x[202] 0
x[203] 1
x[204] 0
x[205] 1
x[206] 0
x[207] 0
x[208] 1
x[209] 1
x[210] 0
x[211] 1
x[212] 0
x[213] 0
x[214] 0
x[215] 0
x[216] 1
x[217] 1
x[218] 0
x[219] 0
x[220] 0
x[221] 0
x[222] 0
x[223] 0
x[224] 1
x[225] 1
x[226] 1
x[227] 0
x[228] 1
x[229] 0
x[230] 0
x[231] 1
x[232] 1
x[233] 0
x[234] 1
x[235] 0
x[236] 1
x[237] 0
x[238] 1
x[239] 1
x[240] 1
x[241] 1
x[242] 0
x[243] 1
x[244] 0
x[245] 0
x[246] 0
x[247] 1
x[248] 0
x[249] 0
x[250] 0
x[251] 1
x[252] 1
x[253] 0
x[254] 0
x[255] 0
x[256] 1
x[257] 0
x[258] 1
x[259] 0
x[260] 0
x[261] 1
x[262] 0
x[263] 0
x[264] 0
x[265] 0
x[266] 1
x[267] 0
x[268] 0
x[269] 0
x[270] 0
x[271] 1
x[272] 0
x[273] 1
x[274] 0
x[275] 1
x[276] 1
x[277] 1
x[278] 1
x[279] 0
x[280] 0
x[281] 1
x[282] 0
x[283] 1
x[284] 1
x[285] 0
x[286] 0
x[287] 1
x[288] 0
x[289] 1
x[290] 1
x[291] 0
x[292] 0
x[293] 1
x[294] 0
x[295] 1
x[296] 1
x[297] 1
x[298] 0
x[299] 1
x[300] 1
x[301] 1
x[302] 0
x[303] 1
x[304] 0
x[305] 1
x[306] 0
x[307] 1
x[308] 0
x[309] 0
x[310] 0
x[311] 0
x[312] 0
x[313] 0
x[314] 0
x[315] 1
x[316] 1
x[317] 0
x[318] 0
x[319] 0
x[320] 1
x[321] 0
x[322] 0
x[323] 0
x[324] 0
x[325] 1
x[326] 0
x[327] 1
x[328] 1
x[329] 0
x[330] 1
x[331] 1
x[332] 0
x[333] 0
x[334] 0
x[335] 1
x[336] 1
x[337] 0
x[338] 0
x[339] 1
x[340] 0
x[341] 1
x[342] 0
x[343] 0
x[344] 1
x[345] 1
x[346] 1
x[347] 1
x[348] 1
x[349] 0
x[350] 0
x[351] 0
x[352] 1
x[353] 1
x[354] 1
x[355] 0
x[356] 0
x[357] 1
x[358] 0
x[359] 1
x[360] 1
x[361] 1
x[362] 0
x[363] 1
x[364] 1
x[365] 0
x[366] 0
x[367] 1
x[368] 1
x[369] 1
x[370] 0
x[371] 1
x[372] 1
x[373] 0
x[374] 0
x[375] 0
x[376] 0
x[377] 1
x[378] 0
x[379] 1
x[380] 1
x[381] 1
x[382] 0
x[383] 1
x[384] 1
x[385] 0
x[386] 0
x[387] 1
x[388] 0
x[389] 0
x[390] 1
x[391] 1
x[392] 1
x[393] 0
x[394] 1
x[395] 1
x[396] 1
x[397] 0
x[398] 1
x[399] 1
x[400] 1
x[401] 0
x[402] 1
x[403] 1
x[404] 1
x[405] 1
x[406] 1
x[407] 1
x[408] 0
x[409] 0
x[410] 0
x[411] 1
x[412] 0
x[413] 0
x[414] 0
x[415] 0
x[416] 0
x[417] 1
x[418] 0
x[419] 1
x[420] 1
x[421] 1
x[422] 1
x[423] 0
x[424] 0
x[425] 1
x[426] 0
x[427] 1
x[428] 1
x[429] 1
x[430] 0
x[431] 1
x[432] 1
x[433] 1
x[434] 0
x[435] 1
x[436] 1
x[437] 0
x[438] 0
x[439] 1
x[440] 1
x[441] 0
x[442] 1
x[443] 1
x[444] 1
x[445] 0
x[446] 1
x[447] 1
x[448] 1
x[449] 0
x[450] 1
x[451] 1
x[452] 1
x[453] 0
x[454] 0
x[455] 1
x[456] 1
x[457] 1
x[458] 1
x[459] 0
x[460] 1
x[461] 1
x[462] 0
x[463] 1
x[464] 1
x[465] 1
x[466] 1
x[467] 1
x[468] 1
x[469] 0
x[470] 0
x[471] 1
x[472] 0
x[473] 1
x[474] 0
x[475] 0
x[476] 1
x[477] 1
x[478] 0
x[479] 0
x[480] 0
x[481] 0
x[482] 0
x[483] 1
x[484] 1
x[485] 0
x[486] 1
x[487] 0
x[488] 1
x[489] 0
x[490] 1
x[491] 0
x[492] 1
x[493] 1
x[494] 0
x[495] 1
x[496] 1
x[497] 1
x[498] 0
x[499] 1
x[500] 0
x[501] 1
x[502] 0
x[503] 0
x[504] 0
x[505] 1
x[506] 1
x[507] 0
x[508] 0
x[509] 0
x[510] 1
x[511] 0
x[512] 1
x[513] 0
x[514] 0
x[515] 0
x[516] 1
x[517] 0
x[518] 1
x[519] 1
x[520] 1
x[521] 1
x[522] 0
x[523] 1
x[524] 0
x[525] 0
x[526] 0
x[527] 1
x[528] 0
x[529] 0
x[530] 0
x[531] 1
x[532] 0
x[533] 1
x[534] 1
x[535] 1
x[536] 1
x[537] 1
x[538] 0
x[539] 0
x[540] 0
x[541] 1
x[542] 0
x[543] 1
x[544] 1
x[545] 0
x[546] 0
x[547] 0
x[548] 0
x[549] 1
x[550] 0
x[551] 0
x[552] 0
x[553] 1
x[554] 1
x[555] 0
x[556] 0
x[557] 0
x[558] 0
x[559] 0
x[560] 0
x[561] 0
x[562] 1
x[563] 1
x[564] 0
x[565] 0
x[566] 0
x[567] 1
x[568] 1
x[569] 1
x[570] 1
x[571] 1
x[572] 0
x[573] 1
x[574] 0
x[575] 1
x[576] 1
x[577] 0
x[578] 0
x[579] 0
x[580] 0
x[581] 1
x[582] 0
x[583] 1
x[584] 1
x[585] 0
x[586] 1
x[587] 0
x[588] 0
x[589] 1
x[590] 1
x[591] 0
x[592] 1
x[593] 1
x[594] 1
x[595] 1
x[596] 0
x[597] 0
x[598] 1
x[599] 0
x[600] 0
x[601] 0
x[602] 1
x[603] 1
x[604] 1
x[605] 0
x[606] 0
x[607] 0
x[608] 0
x[609] 1
x[610] 1
x[611] 1
x[612] 0
x[613] 0
x[614] 0
x[615] 0
x[616] 1
x[617] 1
x[618] 0
x[619] 1
x[620] 0
x[621] 0
x[622] 0
x[623] 0
x[624] 1
x[625] 1
x[626] 1
x[627] 0
x[628] 0
x[629] 1
x[630] 1
x[631] 1
x[632] 0
x[633] 1
x[634] 1
x[635] 0
x[636] 0
x[637] 1
x[638] 0
x[639] 1
x[640] 1
x[641] 0
x[642] 1
x[643] 1
x[644] 0
x[645] 0
x[646] 1
x[647] 1
x[648] 0
x[649] 1
x[650] 0
x[651] 0
x[652] 1
x[653] 1
x[654] 1
x[655] 1
x[656] 0
x[657] 1
x[658] 0
x[659] 1
x[660] 1
x[661] 1
x[662] 1
x[663] 0
x[664] 1
x[665] 1
x[666] 1
x[667] 1
x[668] 1
x[669] 0
x[670] 0
x[671] 1
x[672] 0
x[673] 1
x[674] 1
x[675] 1
x[676] 1
x[677] 0
x[678] 0
x[679] 0
x[680] 1
x[681] 0
x[682] 0
x[683] 0
x[684] 1
x[685] 1
x[686] 1
x[687] 0
x[688] 0
x[689] 1
x[690] 1
x[691] 0
x[692] 0
x[693] 1
x[694] 1
x[695] 0
x[696] 1
x[697] 0
x[698] 1
x[699] 1
x[700] 0
x[701] 0
x[702] 1
x[703] 0
x[704] 1
x[705] 0
x[706] 1
x[707] 1
x[708] 0
x[709] 0
x[710] 0
x[711] 0
x[712] 0
x[713] 0
x[714] 0
x[715] 0
x[716] 0
x[717] 0
x[718] 0
x[719] 0
x[720] 0
x[721] 0
x[722] 1
x[723] 0
x[724] 1
x[725] 0
x[726] 0
x[727] 1
x[728] 0
x[729] 0
x[730] 0
x[731] 1
x[732] 0
x[733] 1
x[734] 1
x[735] 0
x[736] 0
x[737] 1
x[738] 0
x[739] 1
x[740] 1
x[741] 0
x[742] 0
x[743] 0
x[744] 0
x[745] 1
x[746] 1
x[747] 0
x[748] 0
x[749] 1
x[750] 1
x[751] 0
x[752] 0
x[753] 1
x[754] 1
x[755] 1
x[756] 0
x[757] 0
x[758] 1
x[759] 1
x[760] 0
x[761] 0
x[762] 1
x[763] 0
x[764] 1
x[765] 0
x[766] 0
x[767] 1
x[768] 0
x[769] 0
x[770] 1
x[771] 1
x[772] 1
x[773] 0
x[774] 0
x[775] 0
x[776] 0
x[777] 1
x[778] 1
x[779] 1
x[780] 1
x[781] 1
x[782] 0
x[783] 1
x[784] 1
x[785] 0
x[786] 1
x[787] 0
x[788] 1
x[789] 0
x[790] 1
x[791] 0
x[792] 1
x[793] 1
x[794] 1
x[795] 1
x[796] 0
x[797] 0
x[798] 0
x[799] 1
x[800] 1
x[801] 1
x[802] 1
x[803] 0
x[804] 0
x[805] 0
x[806] 0
x[807] 1
x[808] 1
x[809] 0
x[810] 1
x[811] 1
x[812] 0
x[813] 1
x[814] 0
x[815] 1
x[816] 1
x[817] 1
x[818] 1
x[819] 0
x[820] 1
x[821] 0
x[822] 0
x[823] 1
x[824] 1
x[825] 1
x[826] 0
x[827] 1
x[828] 1
x[829] 0
x[830] 0
x[831] 0
x[832] 0
x[833] 0
x[834] 1
x[835] 0
x[836] 0
x[837] 0
x[838] 1
x[839] 1
x[840] 0
x[841] 0
x[842] 1
x[843] 1
x[844] 1
x[845] 1
x[846] 0
x[847] 1
x[848] 0
x[849] 1
x[850] 1
x[851] 1
x[852] 1
x[853] 1
x[854] 1
x[855] 1
x[856] 1
x[857] 0
x[858] 0
x[859] 1
x[860] 0
x[861] 0
x[862] 1
x[863] 0
x[864] 0
x[865] 0
x[866] 0
x[867] 0
x[868] 1
x[869] 0
x[870] 1
x[871] 1
x[872] 0
x[873] 0
x[874] 0
x[875] 1
x[876] 0
x[877] 1
x[878] 1
x[879] 1
x[880] 1
x[881] 0
x[882] 1
x[883] 1
x[884] 0
x[885] 0
x[886] 1
x[887] 0
x[888] 0
x[889] 1
x[890] 0
x[891] 0
x[892] 1
x[893] 0
x[894] 0
x[895] 1
x[896] 1
x[897] 0
x[898] 0
x[899] 0
x[900] 0
x[901] 0
x[902] 0
x[903] 0
x[904] 1
x[905] 0
x[906] 0
x[907] 0
x[908] 0
x[909] 1
x[910] 1
x[911] 0
x[912] 1
x[913] 1
x[914] 1
x[915] 1
x[916] 1
x[917] 0
x[918] 1
x[919] 1
x[920] 1
x[921] 0
x[922] 0
x[923] 1
x[924] 0
x[925] 1
x[926] 0
x[927] 1
x[928] 1
x[929] 1
x[930] 0
x[931] 0
x[932] 1
x[933] 0
x[934] 1
x[935] 0
x[936] 0
x[937] 0
x[938] 0
x[939] 1
x[940] 1
x[941] 1
x[942] 0
x[943] 0
x[944] 0
x[945] 1
x[946] 1
x[947] 0
x[948] 1
x[949] 0
x[950] 1
x[951] 1
x[952] 1
x[953] 1
x[954] 1
x[955] 0
x[956] 1
x[957] 1
x[958] 0
x[959] 1
x[960] 1
x[961] 0
x[962] 1
x[963] 1
x[964] 0
x[965] 1
x[966] 0
x[967] 1
x[968] 0
x[969] 1
x[970] 0
x[971] 0
x[972] 0
x[973] 1
x[974] 0
x[975] 0
x[976] 0
x[977] 0
x[978] 1
x[979] 1
x[980] 0
x[981] 0
x[982] 1
x[983] 1
x[984] 0
x[985] 1
x[986] 0
x[987] 1
x[988] 1
x[989] 1
x[990] 1
x[991] 1
x[992] 0
x[993] 0
x[994] 0
x[995] 0
x[996] 1
x[997] 0
x[998] 0
x[999] 0
